p cnf 59 13
-13 20 2 36 -3 -33 43 -4 -26 -28 -7 0
-1 -19 -37 38 26 9 -47 15 -5 -10 14 0
-37 4 -51 17 1 19 13 -3 -30 -25 44 0
45 -38 -8 22 2 -14 -47 -5 -20 -40 -23 0
-18 -16 24 5 39 14 41 -12 -2 1 40 0
-5 17 -3 43 4 -1 7 -56 -59 -35 -33 0
-12 7 6 -8 3 -9 -1 13 -24 49 19 0
56 34 22 -7 -2 -29 -1 -10 -18 12 35 0
17 44 3 28 25 -23 39 1 -6 -14 -33 0
40 -32 -5 35 -3 50 24 1 15 -12 21 0
-14 1 13 6 -7 16 48 -19 9 11 -5 0
46 33 -56 3 -27 -9 59 -2 -19 8 14 0
-43 -40 -12 -21 10 -1 18 -50 -48 4 -27 0
